(set-info :smt-lib-version 2.6)
(set-logic QF_LRA)
(set-info :source |
TLP-GP automated DTP to SMT-LIB encoding for planning
by F.Maris and P.Regnier, IRIT - Universite Paul Sabatier, Toulouse

|)
(set-info :category "industrial")
(set-info :status sat)
(declare-fun St_spy_variable () Real)
(declare-fun t_Init_0 () Real)
(declare-fun t_Goal_6 () Real)
(declare-fun t_BREAKING_EGGS_e1_1 () Real)
(declare-fun t_COOKING_LARDON_o1_l1_3 () Real)
(declare-fun t_COOKING_NOODLES_w1_n1_3 () Real)
(declare-fun t_COOKING_CARBONARA_n1_l1_e1_4 () Real)
(declare-fun t_EATING_CARBONARA_n1_l1_e1_5 () Real)
(declare-fun t_BREAKING_EGGS_e2_1 () Real)
(declare-fun t_COOKING_LARDON_o1_l2_3 () Real)
(declare-fun t_COOKING_NOODLES_w1_n2_3 () Real)
(declare-fun t_COOKING_CARBONARA_n2_l2_e2_4 () Real)
(declare-fun t_EATING_CARBONARA_n2_l2_e2_5 () Real)
(declare-fun t_BREAKING_EGGS_e3_1 () Real)
(declare-fun t_COOKING_LARDON_o1_l3_3 () Real)
(declare-fun t_COOKING_NOODLES_w1_n3_3 () Real)
(declare-fun t_COOKING_CARBONARA_n3_l3_e3_4 () Real)
(declare-fun t_EATING_CARBONARA_n3_l3_e3_5 () Real)
(declare-fun t_BREAKING_EGGS_e4_1 () Real)
(declare-fun t_COOKING_LARDON_o1_l4_3 () Real)
(declare-fun t_COOKING_NOODLES_w1_n4_3 () Real)
(declare-fun t_COOKING_CARBONARA_n4_l4_e4_4 () Real)
(declare-fun t_EATING_CARBONARA_n4_l4_e4_5 () Real)
(declare-fun t_BREAKING_EGGS_e5_1 () Real)
(declare-fun t_COOKING_LARDON_o1_l5_3 () Real)
(declare-fun t_COOKING_NOODLES_w1_n5_3 () Real)
(declare-fun t_COOKING_CARBONARA_n5_l5_e5_4 () Real)
(declare-fun t_EATING_CARBONARA_n5_l5_e5_5 () Real)
(declare-fun t_BREAKING_EGGS_e6_1 () Real)
(declare-fun t_COOKING_LARDON_o1_l6_3 () Real)
(declare-fun t_COOKING_NOODLES_w1_n6_3 () Real)
(declare-fun t_COOKING_CARBONARA_n6_l6_e6_4 () Real)
(declare-fun t_EATING_CARBONARA_n6_l6_e6_5 () Real)
(declare-fun t_BREAKING_EGGS_e7_1 () Real)
(declare-fun t_COOKING_LARDON_o1_l7_3 () Real)
(declare-fun t_COOKING_NOODLES_w1_n7_3 () Real)
(declare-fun t_COOKING_CARBONARA_n7_l7_e7_4 () Real)
(declare-fun t_EATING_CARBONARA_n7_l7_e7_5 () Real)
(declare-fun t_BREAKING_EGGS_e8_1 () Real)
(declare-fun t_COOKING_LARDON_o1_l8_3 () Real)
(declare-fun t_COOKING_NOODLES_w1_n8_3 () Real)
(declare-fun t_COOKING_CARBONARA_n8_l8_e8_4 () Real)
(declare-fun t_EATING_CARBONARA_n8_l8_e8_5 () Real)
(declare-fun t_BREAKING_EGGS_e9_1 () Real)
(declare-fun t_COOKING_LARDON_o1_l9_3 () Real)
(declare-fun t_COOKING_NOODLES_w1_n9_3 () Real)
(declare-fun t_COOKING_CARBONARA_n9_l9_e9_4 () Real)
(declare-fun t_EATING_CARBONARA_n9_l9_e9_5 () Real)
(declare-fun t_BREAKING_EGGS_e10_1 () Real)
(declare-fun t_BOILING_OIL_p1_o1_2 () Real)
(declare-fun t_COOKING_LARDON_o1_l10_3 () Real)
(declare-fun t_FIRE_COOKING_PLATE_p1_1 () Real)
(declare-fun t_BOILING_WATER_p1_w1_2 () Real)
(declare-fun t_COOKING_NOODLES_w1_n10_3 () Real)
(declare-fun t_COOKING_CARBONARA_n10_l10_e10_4 () Real)
(declare-fun t_EATING_CARBONARA_n10_l10_e10_5 () Real)
(assert (let ((?v_2 (- t_Goal_6 t_EATING_CARBONARA_n1_l1_e1_5)) (?v_5 (- t_Goal_6 t_EATING_CARBONARA_n2_l2_e2_5)) (?v_8 (- t_Goal_6 t_EATING_CARBONARA_n3_l3_e3_5)) (?v_11 (- t_Goal_6 t_EATING_CARBONARA_n4_l4_e4_5)) (?v_14 (- t_Goal_6 t_EATING_CARBONARA_n5_l5_e5_5)) (?v_17 (- t_Goal_6 t_EATING_CARBONARA_n6_l6_e6_5)) (?v_20 (- t_Goal_6 t_EATING_CARBONARA_n7_l7_e7_5)) (?v_23 (- t_Goal_6 t_EATING_CARBONARA_n8_l8_e8_5)) (?v_26 (- t_Goal_6 t_EATING_CARBONARA_n9_l9_e9_5)) (?v_32 (- t_Goal_6 t_EATING_CARBONARA_n10_l10_e10_5)) (?v_0 (- t_EATING_CARBONARA_n1_l1_e1_5 t_COOKING_LARDON_o1_l1_3)) (?v_1 (- t_EATING_CARBONARA_n1_l1_e1_5 t_COOKING_NOODLES_w1_n1_3)) (?v_3 (- t_EATING_CARBONARA_n2_l2_e2_5 t_COOKING_LARDON_o1_l2_3)) (?v_4 (- t_EATING_CARBONARA_n2_l2_e2_5 t_COOKING_NOODLES_w1_n2_3)) (?v_6 (- t_EATING_CARBONARA_n3_l3_e3_5 t_COOKING_LARDON_o1_l3_3)) (?v_7 (- t_EATING_CARBONARA_n3_l3_e3_5 t_COOKING_NOODLES_w1_n3_3)) (?v_9 (- t_EATING_CARBONARA_n4_l4_e4_5 t_COOKING_LARDON_o1_l4_3)) (?v_10 (- t_EATING_CARBONARA_n4_l4_e4_5 t_COOKING_NOODLES_w1_n4_3)) (?v_12 (- t_EATING_CARBONARA_n5_l5_e5_5 t_COOKING_LARDON_o1_l5_3)) (?v_13 (- t_EATING_CARBONARA_n5_l5_e5_5 t_COOKING_NOODLES_w1_n5_3)) (?v_15 (- t_EATING_CARBONARA_n6_l6_e6_5 t_COOKING_LARDON_o1_l6_3)) (?v_16 (- t_EATING_CARBONARA_n6_l6_e6_5 t_COOKING_NOODLES_w1_n6_3)) (?v_18 (- t_EATING_CARBONARA_n7_l7_e7_5 t_COOKING_LARDON_o1_l7_3)) (?v_19 (- t_EATING_CARBONARA_n7_l7_e7_5 t_COOKING_NOODLES_w1_n7_3)) (?v_21 (- t_EATING_CARBONARA_n8_l8_e8_5 t_COOKING_LARDON_o1_l8_3)) (?v_22 (- t_EATING_CARBONARA_n8_l8_e8_5 t_COOKING_NOODLES_w1_n8_3)) (?v_24 (- t_EATING_CARBONARA_n9_l9_e9_5 t_COOKING_LARDON_o1_l9_3)) (?v_25 (- t_EATING_CARBONARA_n9_l9_e9_5 t_COOKING_NOODLES_w1_n9_3)) (?v_27 (- t_EATING_CARBONARA_n10_l10_e10_5 t_COOKING_LARDON_o1_l10_3)) (?v_28 (- t_EATING_CARBONARA_n10_l10_e10_5 t_COOKING_NOODLES_w1_n10_3)) (?v_31 (- t_BOILING_WATER_p1_w1_2 t_FIRE_COOKING_PLATE_p1_1))) (let ((?v_30 (<= ?v_31 5)) (?v_29 (- t_BOILING_OIL_p1_o1_2 t_FIRE_COOKING_PLATE_p1_1))) (and (= St_spy_variable (+ 1 t_Init_0)) (>= t_Goal_6 t_Init_0) (>= (- t_BREAKING_EGGS_e1_1 t_Init_0) 0) (>= (- t_Goal_6 t_BREAKING_EGGS_e1_1) 2) (>= (- t_COOKING_LARDON_o1_l1_3 t_Init_0) 0) (>= (- t_Goal_6 t_COOKING_LARDON_o1_l1_3) 13) (>= (- t_COOKING_NOODLES_w1_n1_3 t_Init_0) 0) (>= (- t_Goal_6 t_COOKING_NOODLES_w1_n1_3) 14) (>= (- t_COOKING_CARBONARA_n1_l1_e1_4 t_Init_0) 0) (>= (- t_Goal_6 t_COOKING_CARBONARA_n1_l1_e1_4) 1) (>= (- t_EATING_CARBONARA_n1_l1_e1_5 t_Init_0) 0) (>= ?v_2 5) (>= (- t_BREAKING_EGGS_e2_1 t_Init_0) 0) (>= (- t_Goal_6 t_BREAKING_EGGS_e2_1) 2) (>= (- t_COOKING_LARDON_o1_l2_3 t_Init_0) 0) (>= (- t_Goal_6 t_COOKING_LARDON_o1_l2_3) 13) (>= (- t_COOKING_NOODLES_w1_n2_3 t_Init_0) 0) (>= (- t_Goal_6 t_COOKING_NOODLES_w1_n2_3) 14) (>= (- t_COOKING_CARBONARA_n2_l2_e2_4 t_Init_0) 0) (>= (- t_Goal_6 t_COOKING_CARBONARA_n2_l2_e2_4) 1) (>= (- t_EATING_CARBONARA_n2_l2_e2_5 t_Init_0) 0) (>= ?v_5 5) (>= (- t_BREAKING_EGGS_e3_1 t_Init_0) 0) (>= (- t_Goal_6 t_BREAKING_EGGS_e3_1) 2) (>= (- t_COOKING_LARDON_o1_l3_3 t_Init_0) 0) (>= (- t_Goal_6 t_COOKING_LARDON_o1_l3_3) 13) (>= (- t_COOKING_NOODLES_w1_n3_3 t_Init_0) 0) (>= (- t_Goal_6 t_COOKING_NOODLES_w1_n3_3) 14) (>= (- t_COOKING_CARBONARA_n3_l3_e3_4 t_Init_0) 0) (>= (- t_Goal_6 t_COOKING_CARBONARA_n3_l3_e3_4) 1) (>= (- t_EATING_CARBONARA_n3_l3_e3_5 t_Init_0) 0) (>= ?v_8 5) (>= (- t_BREAKING_EGGS_e4_1 t_Init_0) 0) (>= (- t_Goal_6 t_BREAKING_EGGS_e4_1) 2) (>= (- t_COOKING_LARDON_o1_l4_3 t_Init_0) 0) (>= (- t_Goal_6 t_COOKING_LARDON_o1_l4_3) 13) (>= (- t_COOKING_NOODLES_w1_n4_3 t_Init_0) 0) (>= (- t_Goal_6 t_COOKING_NOODLES_w1_n4_3) 14) (>= (- t_COOKING_CARBONARA_n4_l4_e4_4 t_Init_0) 0) (>= (- t_Goal_6 t_COOKING_CARBONARA_n4_l4_e4_4) 1) (>= (- t_EATING_CARBONARA_n4_l4_e4_5 t_Init_0) 0) (>= ?v_11 5) (>= (- t_BREAKING_EGGS_e5_1 t_Init_0) 0) (>= (- t_Goal_6 t_BREAKING_EGGS_e5_1) 2) (>= (- t_COOKING_LARDON_o1_l5_3 t_Init_0) 0) (>= (- t_Goal_6 t_COOKING_LARDON_o1_l5_3) 13) (>= (- t_COOKING_NOODLES_w1_n5_3 t_Init_0) 0) (>= (- t_Goal_6 t_COOKING_NOODLES_w1_n5_3) 14) (>= (- t_COOKING_CARBONARA_n5_l5_e5_4 t_Init_0) 0) (>= (- t_Goal_6 t_COOKING_CARBONARA_n5_l5_e5_4) 1) (>= (- t_EATING_CARBONARA_n5_l5_e5_5 t_Init_0) 0) (>= ?v_14 5) (>= (- t_BREAKING_EGGS_e6_1 t_Init_0) 0) (>= (- t_Goal_6 t_BREAKING_EGGS_e6_1) 2) (>= (- t_COOKING_LARDON_o1_l6_3 t_Init_0) 0) (>= (- t_Goal_6 t_COOKING_LARDON_o1_l6_3) 13) (>= (- t_COOKING_NOODLES_w1_n6_3 t_Init_0) 0) (>= (- t_Goal_6 t_COOKING_NOODLES_w1_n6_3) 14) (>= (- t_COOKING_CARBONARA_n6_l6_e6_4 t_Init_0) 0) (>= (- t_Goal_6 t_COOKING_CARBONARA_n6_l6_e6_4) 1) (>= (- t_EATING_CARBONARA_n6_l6_e6_5 t_Init_0) 0) (>= ?v_17 5) (>= (- t_BREAKING_EGGS_e7_1 t_Init_0) 0) (>= (- t_Goal_6 t_BREAKING_EGGS_e7_1) 2) (>= (- t_COOKING_LARDON_o1_l7_3 t_Init_0) 0) (>= (- t_Goal_6 t_COOKING_LARDON_o1_l7_3) 13) (>= (- t_COOKING_NOODLES_w1_n7_3 t_Init_0) 0) (>= (- t_Goal_6 t_COOKING_NOODLES_w1_n7_3) 14) (>= (- t_COOKING_CARBONARA_n7_l7_e7_4 t_Init_0) 0) (>= (- t_Goal_6 t_COOKING_CARBONARA_n7_l7_e7_4) 1) (>= (- t_EATING_CARBONARA_n7_l7_e7_5 t_Init_0) 0) (>= ?v_20 5) (>= (- t_BREAKING_EGGS_e8_1 t_Init_0) 0) (>= (- t_Goal_6 t_BREAKING_EGGS_e8_1) 2) (>= (- t_COOKING_LARDON_o1_l8_3 t_Init_0) 0) (>= (- t_Goal_6 t_COOKING_LARDON_o1_l8_3) 13) (>= (- t_COOKING_NOODLES_w1_n8_3 t_Init_0) 0) (>= (- t_Goal_6 t_COOKING_NOODLES_w1_n8_3) 14) (>= (- t_COOKING_CARBONARA_n8_l8_e8_4 t_Init_0) 0) (>= (- t_Goal_6 t_COOKING_CARBONARA_n8_l8_e8_4) 1) (>= (- t_EATING_CARBONARA_n8_l8_e8_5 t_Init_0) 0) (>= ?v_23 5) (>= (- t_BREAKING_EGGS_e9_1 t_Init_0) 0) (>= (- t_Goal_6 t_BREAKING_EGGS_e9_1) 2) (>= (- t_COOKING_LARDON_o1_l9_3 t_Init_0) 0) (>= (- t_Goal_6 t_COOKING_LARDON_o1_l9_3) 13) (>= (- t_COOKING_NOODLES_w1_n9_3 t_Init_0) 0) (>= (- t_Goal_6 t_COOKING_NOODLES_w1_n9_3) 14) (>= (- t_COOKING_CARBONARA_n9_l9_e9_4 t_Init_0) 0) (>= (- t_Goal_6 t_COOKING_CARBONARA_n9_l9_e9_4) 1) (>= (- t_EATING_CARBONARA_n9_l9_e9_5 t_Init_0) 0) (>= ?v_26 5) (>= (- t_BREAKING_EGGS_e10_1 t_Init_0) 0) (>= (- t_Goal_6 t_BREAKING_EGGS_e10_1) 2) (>= (- t_BOILING_OIL_p1_o1_2 t_Init_0) 0) (>= (- t_Goal_6 t_BOILING_OIL_p1_o1_2) 10) (>= (- t_COOKING_LARDON_o1_l10_3 t_Init_0) 0) (>= (- t_Goal_6 t_COOKING_LARDON_o1_l10_3) 13) (>= (- t_FIRE_COOKING_PLATE_p1_1 t_Init_0) 0) (>= (- t_Goal_6 t_FIRE_COOKING_PLATE_p1_1) 15) (>= (- t_BOILING_WATER_p1_w1_2 t_Init_0) 0) (>= (- t_Goal_6 t_BOILING_WATER_p1_w1_2) 10) (>= (- t_COOKING_NOODLES_w1_n10_3 t_Init_0) 0) (>= (- t_Goal_6 t_COOKING_NOODLES_w1_n10_3) 14) (>= (- t_COOKING_CARBONARA_n10_l10_e10_4 t_Init_0) 0) (>= (- t_Goal_6 t_COOKING_CARBONARA_n10_l10_e10_4) 1) (>= (- t_EATING_CARBONARA_n10_l10_e10_5 t_Init_0) 0) (>= ?v_32 5) (<= ?v_0 8) (< ?v_0 8) (>= ?v_0 5) (<= ?v_1 17) (< ?v_1 17) (>= ?v_1 6) (>= (- t_COOKING_CARBONARA_n1_l1_e1_4 t_BREAKING_EGGS_e1_1) 2) (>= (- t_COOKING_LARDON_o1_l1_3 t_BOILING_OIL_p1_o1_2) 2) (>= (- t_COOKING_CARBONARA_n1_l1_e1_4 t_COOKING_LARDON_o1_l1_3) 5) (>= (- t_COOKING_NOODLES_w1_n1_3 t_BOILING_WATER_p1_w1_2) 2) (>= (- t_COOKING_CARBONARA_n1_l1_e1_4 t_COOKING_NOODLES_w1_n1_3) 6) (>= (- t_EATING_CARBONARA_n1_l1_e1_5 t_COOKING_CARBONARA_n1_l1_e1_4) 1) (>= ?v_2 6) (<= ?v_3 8) (< ?v_3 8) (>= ?v_3 5) (<= ?v_4 17) (< ?v_4 17) (>= ?v_4 6) (>= (- t_COOKING_CARBONARA_n2_l2_e2_4 t_BREAKING_EGGS_e2_1) 2) (>= (- t_COOKING_LARDON_o1_l2_3 t_BOILING_OIL_p1_o1_2) 2) (>= (- t_COOKING_CARBONARA_n2_l2_e2_4 t_COOKING_LARDON_o1_l2_3) 5) (>= (- t_COOKING_NOODLES_w1_n2_3 t_BOILING_WATER_p1_w1_2) 2) (>= (- t_COOKING_CARBONARA_n2_l2_e2_4 t_COOKING_NOODLES_w1_n2_3) 6) (>= (- t_EATING_CARBONARA_n2_l2_e2_5 t_COOKING_CARBONARA_n2_l2_e2_4) 1) (>= ?v_5 6) (<= ?v_6 8) (< ?v_6 8) (>= ?v_6 5) (<= ?v_7 17) (< ?v_7 17) (>= ?v_7 6) (>= (- t_COOKING_CARBONARA_n3_l3_e3_4 t_BREAKING_EGGS_e3_1) 2) (>= (- t_COOKING_LARDON_o1_l3_3 t_BOILING_OIL_p1_o1_2) 2) (>= (- t_COOKING_CARBONARA_n3_l3_e3_4 t_COOKING_LARDON_o1_l3_3) 5) (>= (- t_COOKING_NOODLES_w1_n3_3 t_BOILING_WATER_p1_w1_2) 2) (>= (- t_COOKING_CARBONARA_n3_l3_e3_4 t_COOKING_NOODLES_w1_n3_3) 6) (>= (- t_EATING_CARBONARA_n3_l3_e3_5 t_COOKING_CARBONARA_n3_l3_e3_4) 1) (>= ?v_8 6) (<= ?v_9 8) (< ?v_9 8) (>= ?v_9 5) (<= ?v_10 17) (< ?v_10 17) (>= ?v_10 6) (>= (- t_COOKING_CARBONARA_n4_l4_e4_4 t_BREAKING_EGGS_e4_1) 2) (>= (- t_COOKING_LARDON_o1_l4_3 t_BOILING_OIL_p1_o1_2) 2) (>= (- t_COOKING_CARBONARA_n4_l4_e4_4 t_COOKING_LARDON_o1_l4_3) 5) (>= (- t_COOKING_NOODLES_w1_n4_3 t_BOILING_WATER_p1_w1_2) 2) (>= (- t_COOKING_CARBONARA_n4_l4_e4_4 t_COOKING_NOODLES_w1_n4_3) 6) (>= (- t_EATING_CARBONARA_n4_l4_e4_5 t_COOKING_CARBONARA_n4_l4_e4_4) 1) (>= ?v_11 6) (<= ?v_12 8) (< ?v_12 8) (>= ?v_12 5) (<= ?v_13 17) (< ?v_13 17) (>= ?v_13 6) (>= (- t_COOKING_CARBONARA_n5_l5_e5_4 t_BREAKING_EGGS_e5_1) 2) (>= (- t_COOKING_LARDON_o1_l5_3 t_BOILING_OIL_p1_o1_2) 2) (>= (- t_COOKING_CARBONARA_n5_l5_e5_4 t_COOKING_LARDON_o1_l5_3) 5) (>= (- t_COOKING_NOODLES_w1_n5_3 t_BOILING_WATER_p1_w1_2) 2) (>= (- t_COOKING_CARBONARA_n5_l5_e5_4 t_COOKING_NOODLES_w1_n5_3) 6) (>= (- t_EATING_CARBONARA_n5_l5_e5_5 t_COOKING_CARBONARA_n5_l5_e5_4) 1) (>= ?v_14 6) (<= ?v_15 8) (< ?v_15 8) (>= ?v_15 5) (<= ?v_16 17) (< ?v_16 17) (>= ?v_16 6) (>= (- t_COOKING_CARBONARA_n6_l6_e6_4 t_BREAKING_EGGS_e6_1) 2) (>= (- t_COOKING_LARDON_o1_l6_3 t_BOILING_OIL_p1_o1_2) 2) (>= (- t_COOKING_CARBONARA_n6_l6_e6_4 t_COOKING_LARDON_o1_l6_3) 5) (>= (- t_COOKING_NOODLES_w1_n6_3 t_BOILING_WATER_p1_w1_2) 2) (>= (- t_COOKING_CARBONARA_n6_l6_e6_4 t_COOKING_NOODLES_w1_n6_3) 6) (>= (- t_EATING_CARBONARA_n6_l6_e6_5 t_COOKING_CARBONARA_n6_l6_e6_4) 1) (>= ?v_17 6) (<= ?v_18 8) (< ?v_18 8) (>= ?v_18 5) (<= ?v_19 17) (< ?v_19 17) (>= ?v_19 6) (>= (- t_COOKING_CARBONARA_n7_l7_e7_4 t_BREAKING_EGGS_e7_1) 2) (>= (- t_COOKING_LARDON_o1_l7_3 t_BOILING_OIL_p1_o1_2) 2) (>= (- t_COOKING_CARBONARA_n7_l7_e7_4 t_COOKING_LARDON_o1_l7_3) 5) (>= (- t_COOKING_NOODLES_w1_n7_3 t_BOILING_WATER_p1_w1_2) 2) (>= (- t_COOKING_CARBONARA_n7_l7_e7_4 t_COOKING_NOODLES_w1_n7_3) 6) (>= (- t_EATING_CARBONARA_n7_l7_e7_5 t_COOKING_CARBONARA_n7_l7_e7_4) 1) (>= ?v_20 6) (<= ?v_21 8) (< ?v_21 8) (>= ?v_21 5) (<= ?v_22 17) (< ?v_22 17) (>= ?v_22 6) (>= (- t_COOKING_CARBONARA_n8_l8_e8_4 t_BREAKING_EGGS_e8_1) 2) (>= (- t_COOKING_LARDON_o1_l8_3 t_BOILING_OIL_p1_o1_2) 2) (>= (- t_COOKING_CARBONARA_n8_l8_e8_4 t_COOKING_LARDON_o1_l8_3) 5) (>= (- t_COOKING_NOODLES_w1_n8_3 t_BOILING_WATER_p1_w1_2) 2) (>= (- t_COOKING_CARBONARA_n8_l8_e8_4 t_COOKING_NOODLES_w1_n8_3) 6) (>= (- t_EATING_CARBONARA_n8_l8_e8_5 t_COOKING_CARBONARA_n8_l8_e8_4) 1) (>= ?v_23 6) (<= ?v_24 8) (< ?v_24 8) (>= ?v_24 5) (<= ?v_25 17) (< ?v_25 17) (>= ?v_25 6) (>= (- t_COOKING_CARBONARA_n9_l9_e9_4 t_BREAKING_EGGS_e9_1) 2) (>= (- t_COOKING_LARDON_o1_l9_3 t_BOILING_OIL_p1_o1_2) 2) (>= (- t_COOKING_CARBONARA_n9_l9_e9_4 t_COOKING_LARDON_o1_l9_3) 5) (>= (- t_COOKING_NOODLES_w1_n9_3 t_BOILING_WATER_p1_w1_2) 2) (>= (- t_COOKING_CARBONARA_n9_l9_e9_4 t_COOKING_NOODLES_w1_n9_3) 6) (>= (- t_EATING_CARBONARA_n9_l9_e9_5 t_COOKING_CARBONARA_n9_l9_e9_4) 1) (>= ?v_26 6) (<= ?v_27 8) (< ?v_27 8) (>= ?v_27 5) (<= ?v_28 17) (< ?v_28 17) (>= ?v_28 6) (>= (- t_COOKING_CARBONARA_n10_l10_e10_4 t_BREAKING_EGGS_e10_1) 2) ?v_30 (<= ?v_29 5) (< ?v_29 5) (>= ?v_29 1) (>= (- t_COOKING_LARDON_o1_l10_3 t_BOILING_OIL_p1_o1_2) 2) (>= (- t_COOKING_CARBONARA_n10_l10_e10_4 t_COOKING_LARDON_o1_l10_3) 5) ?v_30 (>= ?v_31 1) (>= (- t_COOKING_NOODLES_w1_n10_3 t_BOILING_WATER_p1_w1_2) 2) (>= (- t_COOKING_CARBONARA_n10_l10_e10_4 t_COOKING_NOODLES_w1_n10_3) 6) (>= (- t_EATING_CARBONARA_n10_l10_e10_5 t_COOKING_CARBONARA_n10_l10_e10_4) 1) (>= ?v_32 6)))))
(check-sat)
(exit)
